27152 11716 9098 9167 8785 9268 9268 9399 9401 9401 9401 9401 9401 9401 9401 9401 9434 9434 9434 9434 9434 9434 9434 9434 9434 9434 9434 9434 9434 9434 9434 9434 9434 9434 9434 9434 9434 9434 9434 9434 9434 9434 9434 9434 9434 9434 9434 9434 9434 9434 9434 9434 9434 9434 9434 9434 9434 9434 9434 9434 9434 9434 9434 9434 9434 9434 9434 9434 9434 9434 9434 9434 9434 9434 9434 9434 9434 9434 9434 9434 9434 9434 9434 9434 9434 9434 9434 9434 9434 9434 9434 9434 9434 9434 9434 9434 9434 9434 9434 9434 9434 9434 9434 9434 9434 9434 9434 9434 9434 9434 9434 9434 9434 9434 9434 9434 9434 9434 9434 9434 9434 9434 9434 9434 9434 9434 9434 9434 9434 9434 9434 9434 9434 9434 9434 9434 9434 9434 9434 9434 9434 9434 9434 9434 9434 9434 9434 9434 9434 9434 9434 9434 9434 9434 9434 9434 9434 9434 9434 9434 9434 9434 9434 9434 9434 9434 9434 9434 9434 9434 9434 9434 9434 9434 9434 9434 9434 9434 9434 9434 9434 9434 9434 9434 9434 9434 9434 9434 9434 9434 9434 9434 9434 9434 9434 9434 9434 9434 9434 9434 9434 9434 9434 9434 9434 9434 9434 9434 9434 9434 9434 9434 9434 9434 9434 9434 9434 9434 9434 9434 9434 9434 9434 9434 9434 9434 9434 9434 9434 9434 9434 9434 9434 9434 9434 9434 9434 9434 9434 9434 9434 9434 9434 9434 9434 9434 9434 9434 9434 9434 9434 9434 9434 9434 9434 9434 9434 9434 9434 9434 9434 9434 9434 9434 9434 9434 9434 9434 9434 9434 9434 9434 9434 9434 9434 9434 9434 9434 9434 9434 9434 9434 9434 9434 9434 9434 9434 9434 9434 9434 9434 9434 9434 9434 9434 9434 9434 9434 9434 9434 9434 9434 9434 9434 9434 9434 9434 9434 9434 9434 9434 9434 9434 9434 9434 9434 9434 9434 9434 9434 9434 9434 9434 9434 9434 9434 9434 9434 9434 9434 9434 9434 9434 9434 9434 9434 9434 9434 9434 9434 9434 9434 9434 9434 9434 9434 9434 9434 9434 9434 9434 9434 9434 9434 9434 9434 9434 9434 9434 9434 9434 9434 9434 9434 9434 9434 9434 9434 9434 9434 9434 9434 9434 9434 9434 9434 9434 9434 9434 9434 9434 9434 9434 9434 9434 9434 9434 9434 9434 9434 9434 9434 9434 9434 9434 9434 9434 9434 9434 9434 9434 9434 9434 9434 9434 9434 9434 9434 9434 9434 9434 9434 9434 9434 9434 9434 9434 9434 9434 9434 9434 9434 9434 9434 9434 9434 9434 9434 9434 9434 9434 9434 9434 9434 9434 9434 9434 9434 9434 9434 9434 9434 9434 9434 9434 9434 9434 9434 9434 9434 9434 9434 9434 9434 9434 9434 9434 9434 9434 9434 9434 9434 9434 9434 9434 9434 9434 9434 9434 9434 9434 9434 9434 9434 9434 9434 9434 9434 9434 9434 9434 9434 9434 9434 9434 9434 9434 9434 9434 9434 9434 9434 9434 9434 9434 9434 9434 9434 9434 9434 9434 9434 9434 9434 9434 9434 9434 9434 9434 9434 9434 9434 9434 9434 9434 9434 9434 9434 9434 9434 9434 9434 9434 9434 9434 9434 9434 9434 9434 9434 9434 9434 9434 9434 9434 9434 9434 9434 9434 9434 9434 9434 9434 9434 9434 9434 9434 9434 9434 9434 9434 9434 9434 9434 9434 9434 9434 9434 9434 9434 9434 9434 9434 9434 9434 9434 9434 9434 9434 9434 9434 9434 9434 9434 9434 9434 9434 9434 9434 9434 9434 9434 9434 9434 9434 9434 9434 9434 9434 9434 9434 9434 9434 9434 9434 9434 9434 9434 9434 9434 9434 9434 9434 9434 9434 9434 9434 9434 9434 9434 9434 9434 9434 9434 9434 9434 9434 9434 9434 9434 9434 9434 9434 9434 9434 9434 9434 9434 9434 9434 9434 9434 9434 9434 9434 9434 9434 9434 9434 9434 9434 9434 9434 9434 9434 9434 9434 9434 9434 9434 9434 9434 9434 9434 9434 9434 9434 9434 9434 9434 9434 9434 9434 9434 9434 9434 9434 9434 9434 9356 9434 9434 9434 9434 9434 9434 9434 9434 9434 9434 9434 9434 9434 9434 9434 9434 9434 9434 9434 9434 9434 9434 9434 9434 9434 9434 9434 9434 9434 9434 9434 9434 9434 9434 9434 9434 9434 9434 9434 9434 9434 9434 9434 9434 9434 9434 9434 9434 9434 9434 9434 9434 9434 9434 9434 9434 9434 9434 9434 9434 9434 9434 9434 9434 9434 9434 9434 9434 9434 9434 9434 9434 9434 9434 9434 9434 9434 9434 9434 9434 9434 9434 9434 9434 9434 9434 9434 9434 9434 9434 9434 9434 9434 9434 9434 9434 9434 9434 9434 9434 9434 9434 9434 9434 9434 9434 9434 9434 9434 9434 9434 9434 9434 9434 9434 9434 9434 9434 9434 9434 9434 9434 9434 9434 9434 9434 9434 9434 9434 9434 9434 9434 9434 9434 9434 9434 9434 9434 9434 9434 9434 9434 9434 9434 9434 9434 9434 9434 9434 9434 9434 9434 9434 9434 9434 9434 9434 9434 9434 9434 9434 9434 9434 9434 9434 9434 9434 9434 9434 9434 9434 9434 9434 9434 9434 9434 9434 9434 9434 9434 9434 9434 9434 9434 9434 9434 9434 9434 9434 9434 9434 9434 9434 9434 9434 9434 9434 9434 9434 9434 9434 9434 9434 9434 9434 9434 9434 9434 9434 9434 9434 9434 9434 9434 9434 9434 9434 9434 9434 9434 9434 9434 9434 9434 9434 9434 9434 9434 9434 9434 9434 9434 9434 9434 9434 9434 9434 9434 9434 9434 9434 9434 9434 9434 9434 9434 9434 9434 9434 9434 9434 9434 9434 9434 9434 9434 9434 9434 9434 9434 9434 9434 9434 9434 9434 9434 9434 9434 9434 9434 9434 9434 9434 9434 9434 9434 9434 9434 9434 9434 9434 9434 9434 9434 9434 9434 9434 9434 9434 9434 9434 9434 9434 9434 9434 9434 9434 9434 9434 9434 9434 9434 9434 9434 9434 9434 9434 9434 9434 9434 9434 9434 9434 9434 9434 9434 9434 9434 9434 9434 9434 9434 9434 9434 9434 9434 9434 9434 9434 9434 